Gurobi Optimizer version 9.1.2 build v9.1.2rc0 (linux64)
Thread count: 36 physical cores, 72 logical processors, using up to 32 threads
Optimize a model with 12 rows, 57 columns and 590 nonzeros
Model fingerprint: 0xf32eec78
Model has 47 quadratic constraints
Coefficient statistics:
  Matrix range     [2e-05, 3e+00]
  QMatrix range    [1e+00, 1e+00]
  QLMatrix range   [1e+00, 1e+00]
  Objective range  [8e-03, 7e-01]
  Bounds range     [1e+00, 1e+00]
  RHS range        [1e+00, 1e+00]
Presolve removed 9 rows and 0 columns

Continuous model is non-convex -- solving as a MIP.

Presolve removed 9 rows and 0 columns
Presolve time: 0.00s
Presolved: 189 rows, 57 columns, 443 nonzeros
Presolved model has 47 bilinear constraint(s)
Variable types: 57 continuous, 0 integer (0 binary)

Root relaxation: objective -1.743721e+00, 44 iterations, 0.00 seconds

    Nodes    |    Current Node    |     Objective Bounds      |     Work
 Expl Unexpl |  Obj  Depth IntInf | Incumbent    BestBd   Gap | It/Node Time

     0     0   -1.74372    0   38          -   -1.74372      -     -    0s
H    0     0                       0.6147548   -1.74372   384%     -    0s
     0     0   -1.64739    0    1    0.61475   -1.64739   368%     -    0s
H    0     0                      -1.6450460   -1.64739  0.14%     -    0s
     0     0     cutoff    0        -1.64505   -1.64505  0.00%     -    0s

Cutting planes:
  RLT: 25
  BQP: 3

Explored 1 nodes (76 simplex iterations) in 0.01 seconds
Thread count was 32 (of 72 available processors)

Solution count 2: -1.64505 0.614755 
No other solutions better than -1.64505

Optimal solution found (tolerance 1.00e-04)
Best objective -1.645045978473e+00, best bound -1.645045978473e+00, gap 0.0000%

User-callback calls 78, time in user-callback 0.00 sec
Gurobi Optimizer version 9.1.2 build v9.1.2rc0 (linux64)
Thread count: 36 physical cores, 72 logical processors, using up to 32 threads
Optimize a model with 60 rows, 312 columns and 16100 nonzeros
Model fingerprint: 0x1295b425
Model has 262 quadratic constraints
Coefficient statistics:
  Matrix range     [4e-07, 7e+00]
  QMatrix range    [1e+00, 1e+00]
  QLMatrix range   [1e+00, 1e+00]
  Objective range  [5e-03, 1e+00]
  Bounds range     [1e+00, 1e+00]
  RHS range        [1e+00, 1e+00]
Presolve removed 15 rows and 0 columns

Continuous model is non-convex -- solving as a MIP.

Presolve removed 15 rows and 0 columns
Presolve time: 0.01s
Presolved: 1081 rows, 312 columns, 13447 nonzeros
Presolved model has 262 bilinear constraint(s)
Variable types: 312 continuous, 0 integer (0 binary)

Root relaxation: objective -2.649011e+01, 280 iterations, 0.01 seconds

    Nodes    |    Current Node    |     Objective Bounds      |     Work
 Expl Unexpl |  Obj  Depth IntInf | Incumbent    BestBd   Gap | It/Node Time

     0     0  -26.49011    0  160          -  -26.49011      -     -    0s
     0     0  -25.12065    0   78          -  -25.12065      -     -    0s
     0     0  -25.08623    0   78          -  -25.08623      -     -    0s
     0     0  -25.04756    0   83          -  -25.04756      -     -    0s
     0     0  -25.04490    0   77          -  -25.04490      -     -    0s
     0     0  -25.03650    0   97          -  -25.03650      -     -    0s
     0     0  -25.03511    0   97          -  -25.03511      -     -    0s
     0     0  -25.03343    0   83          -  -25.03343      -     -    0s
     0     0  -25.03330    0   83          -  -25.03330      -     -    0s
     0     0  -25.03174    0   83          -  -25.03174      -     -    0s
     0     0  -25.03107    0   83          -  -25.03107      -     -    0s
     0     0  -25.02954    0   91          -  -25.02954      -     -    0s
     0     0  -25.02908    0   91          -  -25.02908      -     -    0s
     0     0  -25.02694    0   91          -  -25.02694      -     -    0s
     0     0  -25.02681    0   83          -  -25.02681      -     -    0s
     0     0  -25.02625    0   83          -  -25.02625      -     -    0s
H    0     0                     -22.5431996  -25.02625  11.0%     -    0s
H    0     0                     -22.5702292  -25.02625  10.9%     -    0s
     0     2  -25.02625    0   83  -22.57023  -25.02625  10.9%     -    0s
* 1344  1217              54     -22.5704540  -23.95827  6.15%  59.2    1s
* 1851  1659              52     -22.5705555  -23.95827  6.15%  50.2    1s
* 1878  1659              57     -22.5715910  -23.95827  6.14%  49.7    1s
* 1980  1768              71     -22.5724213  -23.95827  6.14%  48.4    1s
* 2006  1768              98     -22.6557106  -23.95827  5.75%  48.1    1s
* 2091  1826              58     -23.2430513  -23.92519  2.93%  47.1    2s
* 2394  1779              59     -23.2809929  -23.92519  2.77%  46.7    2s
* 2395  1779              59     -23.2809933  -23.92519  2.77%  46.6    2s
* 4365   671              51     -23.2812435  -23.86955  2.53%  53.0    3s
* 4446   631              51     -23.2812596  -23.86955  2.53%  53.1    3s
* 4622   605              53     -23.2812761  -23.86955  2.53%  53.2    3s
* 4627   571              53     -23.2812840  -23.86955  2.53%  53.1    3s
* 5038   660              57     -23.2831944  -23.86955  2.52%  53.5    3s
* 5111   720              84     -23.3670726  -23.86955  2.15%  53.5    4s
* 6547  1152              59     -23.3676097  -23.86955  2.15%  53.3    4s
* 7015  1332              73     -23.3685515  -23.86955  2.14%  52.3    4s
* 7172  1425              52     -23.3691461  -23.86955  2.14%  51.9    4s
* 7405  1536              53     -23.3691980  -23.86955  2.14%  51.5    4s
* 7425  1536              72     -23.3710088  -23.86955  2.13%  51.4    4s
* 7526  1536              60     -23.3723621  -23.86955  2.13%  51.2    4s
* 7527  1536              60     -23.3724031  -23.86955  2.13%  51.2    4s
  7872  1773     cutoff   22       -23.37240  -23.86955  2.13%  50.8    5s
* 7960  1773              56     -23.3734307  -23.86955  2.12%  50.6    5s
* 8232  1907              52     -23.3741595  -23.86955  2.12%  50.1    5s
* 8504  1911              54     -23.3742525  -23.86955  2.12%  49.8    5s
* 8505  1911              54     -23.3742564  -23.86955  2.12%  49.8    5s
* 8507  1911              54     -23.3742832  -23.86955  2.12%  49.8    5s
* 8508  1911              54     -23.3742912  -23.86955  2.12%  49.8    5s
* 8597  1911             111     -23.3936268  -23.86955  2.03%  49.6    5s
* 8598  1911             111     -23.3939063  -23.86955  2.03%  49.5    5s
* 8613  1911             114     -23.3939071  -23.86955  2.03%  49.5    5s
* 8616  1911             114     -23.3939158  -23.86955  2.03%  49.4    5s
* 9226  1874              72     -23.4624629  -23.86955  1.74%  48.7    5s
* 9227  1874              72     -23.4624629  -23.86955  1.74%  48.7    5s
*13276  1924              68     -23.4647088  -23.62941  0.70%  45.5    6s
*24804  1957              68     -23.4647177  -23.50949  0.19%  40.1    8s
*25832  1954              67     -23.4648206  -23.50654  0.18%  39.5    8s
*27901  2002              57     -23.4648305  -23.49976  0.15%  38.4    9s
*27904  1996              57     -23.4648670  -23.49976  0.15%  38.4    9s
*30430  1792              63     -23.4661152  -23.49253  0.11%  37.0    9s
*30433  1790              65     -23.4661319  -23.49253  0.11%  37.0    9s
 32301  1635     cutoff   43       -23.46613  -23.48686  0.09%  36.1   10s
*33031  1635              64     -23.4661325  -23.48463  0.08%  35.7   10s
*33032  1635              64     -23.4661326  -23.48463  0.08%  35.7   10s
*40260  1409              61     -23.4661517  -23.47373  0.03%  31.7   11s
*40264  1409              62     -23.4661517  -23.47373  0.03%  31.7   11s
*40265  1409              62     -23.4661519  -23.47373  0.03%  31.7   11s
*40552  1341              63     -23.4662070  -23.47282  0.03%  31.6   11s
*40556  1341              63     -23.4662854  -23.47282  0.03%  31.6   11s
*40557  1341              63     -23.4663373  -23.47282  0.03%  31.6   11s
*43326  1237              68     -23.4663619  -23.47098  0.02%  30.2   11s
*45005  1014              70     -23.4664167  -23.46981  0.01%  29.4   11s
*45006  1014              70     -23.4664169  -23.46981  0.01%  29.4   11s
*45067  1014              63     -23.4664334  -23.46980  0.01%  29.4   11s
*47918   575              63     -23.4664450  -23.46866  0.01%  28.2   12s
*47919   575              63     -23.4664452  -23.46866  0.01%  28.2   12s

Explored 49896 nodes (1371365 simplex iterations) in 12.28 seconds
Thread count was 32 (of 72 available processors)

Solution count 10: -23.4664 -23.4664 -23.4664 ... -23.4662

Optimal solution found (tolerance 1.00e-04)
Best objective -2.346644522036e+01, best bound -2.346766217926e+01, gap 0.0052%

User-callback calls 100910, time in user-callback 0.02 sec



objective value: -23.46644522036219
objective bound: -23.46766217926171
x_opt: [1.0, 0.9394526359632178, 0.0, 0.3893513754314639, 0.0, 0.0, 1.0, 0.0, 0.0, 0.0, 1.0, 0.0, 1.0, 1.0, 0.434503945016817, 1.0, 0.0, 1.0, 0.0, 0.0, 0.0, 0.1833549534642847, 0.0, 0.538752533465364, 0.0, 0.6589303641208654, 0.0, 1.0, 0.0, 0.0, 1.0, 1.0, 0.0, 0.564202850102733, 1.0, 0.9021848424091656, 0.0, 1.0, 0.0, 1.0, 1.0, 0.0, 0.9292537424745942, 0.09078094867035796, 0.00032286796904997276, 0.00010948709084924718, 0.3851766320442427, 0.41964482435704864, 0.15593945096533351, 0.0]
GUROBI solution time: 12.28171706199646




